n_res = 4;
rcap = [20, 19, 74, 76];
rtype = [1, 1, 2, 2];
n_tasks = 16;
modes = [ {1, 2, 3, 4}, {5, 6, 7, 8}, {9, 10, 11, 12}, {13, 14, 15, 16}, {17, 18, 19, 20}, {21, 22, 23, 24}, {25, 26, 27, 28}, {29, 30, 31, 32}, {33, 34, 35, 36}, {37, 38, 39, 40}, {41, 42, 43, 44}, {45, 46, 47, 48}, {49, 50, 51, 52}, {53, 54, 55, 56}, {57, 58, 59, 60}, {61, 62, 63, 64} ];
succ = [ {7, 9, 12}, {6, 11, 12}, {4, 6, 10}, {5, 7, 13}, {12, 14, 15}, {7, 8, 16}, {14, 15}, {9}, {13}, {11}, {15, 16}, {16}, {14}, {}, {}, {} ];
n_opt = 64;
dur = [7, 8, 9, 9, 1, 1, 3, 6, 1, 1, 2, 4, 4, 7, 8, 10, 7, 9, 10, 10, 2, 2, 4, 10, 3, 3, 8, 8, 3, 4, 4, 4, 5, 6, 8, 8, 4, 5, 5, 10, 2, 4, 5, 9, 4, 4, 5, 7, 1, 1, 5, 5, 4, 8, 9, 10, 1, 2, 2, 3, 1, 1, 4, 8];
rreq = [|  5,  4,  2,  2,  4,  4,  4,  3, 10, 10,  7,  7, 10,  9,  7,  6,  3,  3,  3,  3,  9,  9,  9,  6,  6,  5,  5,  4,  3,  2,  1,  2,  6,  4,  2,  3,  6,  4,  3,  2, 10, 10, 10, 10,  6,  6,  5,  5,  7,  8,  5,  3,  6,  6,  5,  4,  8,  7,  8,  4,  9,  9,  7,  6
        |  2,  2,  1,  1,  5,  5,  4,  3,  8,  7,  6,  3,  9,  9,  9,  9,  2,  2,  1,  1,  6,  7,  6,  4,  8,  9,  3,  5,  1,  1,  1,  1,  3,  3,  2,  2, 10,  8,  9,  7, 10,  9,  8,  8,  9,  8,  6,  4,  5,  5,  5,  5,  8,  8,  8,  6,  4,  4,  3,  2,  5,  6,  5,  5
        |  0,  0,  0,  7,  8,  0,  7,  0,  0,  8,  6,  0,  3,  0,  0,  3,  4,  2,  2,  0,  6,  0,  0,  0,  8,  0,  0,  0,  0,  0,  0,  7,  0,  0,  6,  0, 10, 10,  0,  9,  0,  0,  2,  0,  0,  0,  0,  7,  0,  3,  0,  3,  0,  0,  5,  0,  6,  0,  0,  5,  0,  9,  8,  4
        |  6,  4,  2,  0,  0,  4,  0,  3,  3,  0,  0,  3,  0,  7,  7,  0,  0,  0,  0,  6,  0,  1,  1,  1,  0,  5,  5,  5,  8,  5,  6,  0,  9,  6,  0,  3,  0,  0,  7,  0,  6,  6,  0,  5,  7,  9,  5,  0,  8,  0,  8,  0,  8,  6,  0,  3,  0,  6,  6,  0,  8,  0,  0,  0 |];
